(set-logic HORN)

(declare-fun $main_inv144 ((Array Int Int) (Array Int Int) (Array Int Int) (Array Int Int) (Array Int Int) (Array Int Int) (Array Int Int) Int Int Int) Bool)
(declare-fun __VERIFIER_assert (Int) Bool)
(declare-fun $main_inv146 ((Array Int Int) (Array Int Int) (Array Int Int) (Array Int Int) (Array Int Int) (Array Int Int) (Array Int Int) Int Int Int) Bool)
(declare-fun $main_sum139 ((Array Int Int) (Array Int Int) (Array Int Int) (Array Int Int) (Array Int Int) (Array Int Int) (Array Int Int) Int Int Int) Bool)
(declare-fun $main_inv140 ((Array Int Int) (Array Int Int) (Array Int Int) (Array Int Int) (Array Int Int) (Array Int Int) (Array Int Int) Int Int Int) Bool)
(declare-fun $main_inv143 ((Array Int Int) (Array Int Int) (Array Int Int) (Array Int Int) (Array Int Int) (Array Int Int) (Array Int Int) Int Int Int) Bool)
(declare-fun $__VERIFIER_assert_if53 (Int) Bool)
(declare-fun $main_sum142 ((Array Int Int) (Array Int Int) (Array Int Int) (Array Int Int) (Array Int Int) (Array Int Int) (Array Int Int) Int Int Int) Bool)
(declare-fun $main_inv141 ((Array Int Int) (Array Int Int) (Array Int Int) (Array Int Int) (Array Int Int) (Array Int Int) (Array Int Int) Int Int Int) Bool)
(declare-fun $main_sum143 ((Array Int Int) (Array Int Int) (Array Int Int) (Array Int Int) (Array Int Int) (Array Int Int) (Array Int Int) Int Int Int) Bool)
(declare-fun $main_sum144 ((Array Int Int) (Array Int Int) (Array Int Int) (Array Int Int) (Array Int Int) (Array Int Int) (Array Int Int) Int Int Int) Bool)
(declare-fun $main_sum140 ((Array Int Int) (Array Int Int) (Array Int Int) (Array Int Int) (Array Int Int) (Array Int Int) (Array Int Int) Int Int Int) Bool)
(declare-fun $main_inv139 ((Array Int Int) (Array Int Int) (Array Int Int) (Array Int Int) (Array Int Int) (Array Int Int) (Array Int Int) Int Int Int) Bool)
(declare-fun $main_sum146 ((Array Int Int) (Array Int Int) (Array Int Int) (Array Int Int) (Array Int Int) (Array Int Int) (Array Int Int) Int Int Int) Bool)
(declare-fun $main_inv145 ((Array Int Int) (Array Int Int) (Array Int Int) (Array Int Int) (Array Int Int) (Array Int Int) (Array Int Int) Int Int Int) Bool)
(declare-fun $__VERIFIER_assert_ERROR (Int) Bool)
(declare-fun $main_sum145 ((Array Int Int) (Array Int Int) (Array Int Int) (Array Int Int) (Array Int Int) (Array Int Int) (Array Int Int) Int Int Int) Bool)
(declare-fun $__VERIFIER_assert_pre (Int) Bool)
(declare-fun $main_inv142 ((Array Int Int) (Array Int Int) (Array Int Int) (Array Int Int) (Array Int Int) (Array Int Int) (Array Int Int) Int Int Int) Bool)
(declare-fun $main_sum141 ((Array Int Int) (Array Int Int) (Array Int Int) (Array Int Int) (Array Int Int) (Array Int Int) (Array Int Int) Int Int Int) Bool)

; label ERROR
(assert
  (forall ((cond Int))
    (=> (and (= cond 0)
             ($__VERIFIER_assert_pre cond))
        ($__VERIFIER_assert_ERROR cond))))

; error
(assert
  (forall ((cond2153 Int))
    (=> (and ($__VERIFIER_assert_ERROR cond2153))
        false)))

; if else
(assert
  (forall ((cond Int))
    (=> (and (not (= cond 0))
             ($__VERIFIER_assert_pre cond))
        ($__VERIFIER_assert_if53 cond))))

; post __VERIFIER_assert
(assert
  (forall ((cond2154 Int))
    (=> (and ($__VERIFIER_assert_if53 cond2154))
        (__VERIFIER_assert cond2154))))

; loop entry $main_inv139
(assert
  (forall (($x233 Int) ($a6229 (Array Int Int)) ($a2225 (Array Int Int)) ($a5228 (Array Int Int)) ($i232 Int) ($a1224 (Array Int Int)) ($a7230 (Array Int Int)) ($a3226 (Array Int Int)) ($a4227 (Array Int Int)))
        ($main_inv139 $a1224 $a2225 $a3226 $a4227 $a5228 $a6229 $a7230 0 $i232 $x233)))

; loop term $main_sum139
(assert
  (forall (($a32262157 (Array Int Int)) ($a72302161 (Array Int Int)) ($a42272158 (Array Int Int)) ($x2332164 Int) ($i2322163 Int) ($a12242155 (Array Int Int)) ($a22252156 (Array Int Int)) ($a52282159 (Array Int Int)) ($a2312162 Int) ($a62292160 (Array Int Int)))
    (=> (and (not (< $a2312162 100000))
             ($main_inv139 $a12242155 $a22252156 $a32262157 $a42272158 $a52282159 $a62292160 $a72302161 $a2312162 $i2322163 $x2332164))
        ($main_sum139 $a12242155 $a22252156 $a32262157 $a42272158 $a52282159 $a62292160 $a72302161 $a2312162 $i2322163 $x2332164))))

; forwards $main_inv139
(assert
  (forall (($a32262157 (Array Int Int)) ($a72302161 (Array Int Int)) ($a42272158 (Array Int Int)) ($x2332164 Int) ($i2322163 Int) ($int2166 Int) ($a12242155 (Array Int Int)) ($a22252156 (Array Int Int)) ($a52282159 (Array Int Int)) ($int2165 Int) ($a2312162 Int) ($a62292160 (Array Int Int)))
    (=> (and (<= (- 2147483648) $int2166)
             (<= $int2166 2147483647)
             (<= (- 2147483648) $int2165)
             (<= $int2165 2147483647)
             (< $a2312162 100000)
             ($main_inv139 $a12242155 $a22252156 $a32262157 $a42272158 $a52282159 $a62292160 $a72302161 $a2312162 $i2322163 $x2332164))
        ($main_inv139 (store $a12242155 $a2312162 $int2165) $a22252156 $a32262157 $a42272158 $a52282159 (store $a62292160 $a2312162 $int2166) $a72302161 (+ $a2312162 1) $i2322163 $x2332164))))

; loop entry $main_inv140
(assert
  (forall (($a52282171 (Array Int Int)) ($a32262169 (Array Int Int)) ($a62292172 (Array Int Int)) ($a12242167 (Array Int Int)) ($a2312174 Int) ($a72302173 (Array Int Int)) ($x2332176 Int) ($a22252168 (Array Int Int)) ($a42272170 (Array Int Int)) ($i2322175 Int))
    (=> (and ($main_sum139 $a12242167 $a22252168 $a32262169 $a42272170 $a52282171 $a62292172 $a72302173 $a2312174 $i2322175 $x2332176))
        ($main_inv140 $a12242167 $a22252168 $a32262169 $a42272170 $a52282171 $a62292172 $a72302173 $a2312174 0 $x2332176))))

; loop term $main_sum140
(assert
  (forall (($a42272180 (Array Int Int)) ($a12242177 (Array Int Int)) ($a72302183 (Array Int Int)) ($a62292182 (Array Int Int)) ($a2312184 Int) ($i2322185 Int) ($a32262179 (Array Int Int)) ($a52282181 (Array Int Int)) ($x2332186 Int) ($a22252178 (Array Int Int)))
    (=> (and (not (< $i2322185 100000))
             ($main_inv140 $a12242177 $a22252178 $a32262179 $a42272180 $a52282181 $a62292182 $a72302183 $a2312184 $i2322185 $x2332186))
        ($main_sum140 $a12242177 $a22252178 $a32262179 $a42272180 $a52282181 $a62292182 $a72302183 $a2312184 $i2322185 $x2332186))))

; forwards $main_inv140
(assert
  (forall (($a42272180 (Array Int Int)) ($a12242177 (Array Int Int)) ($a72302183 (Array Int Int)) ($a62292182 (Array Int Int)) ($a2312184 Int) ($i2322185 Int) ($a32262179 (Array Int Int)) ($a52282181 (Array Int Int)) ($x2332186 Int) ($a22252178 (Array Int Int)))
    (=> (and (< $i2322185 100000)
             ($main_inv140 $a12242177 $a22252178 $a32262179 $a42272180 $a52282181 $a62292182 $a72302183 $a2312184 $i2322185 $x2332186))
        ($main_inv140 $a12242177 (store $a22252178 $i2322185 (select $a12242177 $i2322185)) $a32262179 $a42272180 $a52282181 $a62292182 $a72302183 $a2312184 (+ $i2322185 1) $x2332186))))

; loop entry $main_inv141
(assert
  (forall (($a52282191 (Array Int Int)) ($a12242187 (Array Int Int)) ($a22252188 (Array Int Int)) ($a32262189 (Array Int Int)) ($x2332196 Int) ($a62292192 (Array Int Int)) ($a72302193 (Array Int Int)) ($i2322195 Int) ($a2312194 Int) ($a42272190 (Array Int Int)))
    (=> (and ($main_sum140 $a12242187 $a22252188 $a32262189 $a42272190 $a52282191 $a62292192 $a72302193 $a2312194 $i2322195 $x2332196))
        ($main_inv141 $a12242187 $a22252188 $a32262189 $a42272190 $a52282191 $a62292192 $a72302193 $a2312194 0 $x2332196))))

; loop term $main_sum141
(assert
  (forall (($a32262199 (Array Int Int)) ($a52282201 (Array Int Int)) ($a72302203 (Array Int Int)) ($a62292202 (Array Int Int)) ($x2332206 Int) ($a2312204 Int) ($a42272200 (Array Int Int)) ($a12242197 (Array Int Int)) ($i2322205 Int) ($a22252198 (Array Int Int)))
    (=> (and (not (< $i2322205 100000))
             ($main_inv141 $a12242197 $a22252198 $a32262199 $a42272200 $a52282201 $a62292202 $a72302203 $a2312204 $i2322205 $x2332206))
        ($main_sum141 $a12242197 $a22252198 $a32262199 $a42272200 $a52282201 $a62292202 $a72302203 $a2312204 $i2322205 $x2332206))))

; forwards $main_inv141
(assert
  (forall (($a32262199 (Array Int Int)) ($a52282201 (Array Int Int)) ($a72302203 (Array Int Int)) ($a62292202 (Array Int Int)) ($x2332206 Int) ($a2312204 Int) ($a42272200 (Array Int Int)) ($a12242197 (Array Int Int)) ($i2322205 Int) ($a22252198 (Array Int Int)))
    (=> (and (< $i2322205 100000)
             ($main_inv141 $a12242197 $a22252198 $a32262199 $a42272200 $a52282201 $a62292202 $a72302203 $a2312204 $i2322205 $x2332206))
        ($main_inv141 $a12242197 $a22252198 (store $a32262199 $i2322205 (select $a22252198 $i2322205)) $a42272200 $a52282201 $a62292202 $a72302203 $a2312204 (+ $i2322205 1) $x2332206))))

; loop entry $main_inv142
(assert
  (forall (($a2312214 Int) ($a72302213 (Array Int Int)) ($a62292212 (Array Int Int)) ($a52282211 (Array Int Int)) ($a32262209 (Array Int Int)) ($a22252208 (Array Int Int)) ($a12242207 (Array Int Int)) ($i2322215 Int) ($a42272210 (Array Int Int)) ($x2332216 Int))
    (=> (and ($main_sum141 $a12242207 $a22252208 $a32262209 $a42272210 $a52282211 $a62292212 $a72302213 $a2312214 $i2322215 $x2332216))
        ($main_inv142 $a12242207 $a22252208 $a32262209 $a42272210 $a52282211 $a62292212 $a72302213 $a2312214 0 $x2332216))))

; loop term $main_sum142
(assert
  (forall (($a62292222 (Array Int Int)) ($a12242217 (Array Int Int)) ($i2322225 Int) ($a72302223 (Array Int Int)) ($a42272220 (Array Int Int)) ($a52282221 (Array Int Int)) ($a2312224 Int) ($a32262219 (Array Int Int)) ($a22252218 (Array Int Int)) ($x2332226 Int))
    (=> (and (not (< $i2322225 100000))
             ($main_inv142 $a12242217 $a22252218 $a32262219 $a42272220 $a52282221 $a62292222 $a72302223 $a2312224 $i2322225 $x2332226))
        ($main_sum142 $a12242217 $a22252218 $a32262219 $a42272220 $a52282221 $a62292222 $a72302223 $a2312224 $i2322225 $x2332226))))

; forwards $main_inv142
(assert
  (forall (($a62292222 (Array Int Int)) ($a12242217 (Array Int Int)) ($i2322225 Int) ($a72302223 (Array Int Int)) ($a42272220 (Array Int Int)) ($a52282221 (Array Int Int)) ($a2312224 Int) ($a32262219 (Array Int Int)) ($a22252218 (Array Int Int)) ($x2332226 Int))
    (=> (and (< $i2322225 100000)
             ($main_inv142 $a12242217 $a22252218 $a32262219 $a42272220 $a52282221 $a62292222 $a72302223 $a2312224 $i2322225 $x2332226))
        ($main_inv142 $a12242217 $a22252218 $a32262219 (store $a42272220 $i2322225 (select $a32262219 $i2322225)) $a52282221 $a62292222 $a72302223 $a2312224 (+ $i2322225 1) $x2332226))))

; loop entry $main_inv143
(assert
  (forall (($a22252228 (Array Int Int)) ($x2332236 Int) ($a2312234 Int) ($i2322235 Int) ($a62292232 (Array Int Int)) ($a12242227 (Array Int Int)) ($a72302233 (Array Int Int)) ($a42272230 (Array Int Int)) ($a32262229 (Array Int Int)) ($a52282231 (Array Int Int)))
    (=> (and ($main_sum142 $a12242227 $a22252228 $a32262229 $a42272230 $a52282231 $a62292232 $a72302233 $a2312234 $i2322235 $x2332236))
        ($main_inv143 $a12242227 $a22252228 $a32262229 $a42272230 $a52282231 $a62292232 $a72302233 $a2312234 0 $x2332236))))

; loop term $main_sum143
(assert
  (forall (($a12242237 (Array Int Int)) ($a62292242 (Array Int Int)) ($a22252238 (Array Int Int)) ($x2332246 Int) ($a2312244 Int) ($a52282241 (Array Int Int)) ($i2322245 Int) ($a42272240 (Array Int Int)) ($a32262239 (Array Int Int)) ($a72302243 (Array Int Int)))
    (=> (and (not (< $i2322245 100000))
             ($main_inv143 $a12242237 $a22252238 $a32262239 $a42272240 $a52282241 $a62292242 $a72302243 $a2312244 $i2322245 $x2332246))
        ($main_sum143 $a12242237 $a22252238 $a32262239 $a42272240 $a52282241 $a62292242 $a72302243 $a2312244 $i2322245 $x2332246))))

; forwards $main_inv143
(assert
  (forall (($a12242237 (Array Int Int)) ($a62292242 (Array Int Int)) ($a22252238 (Array Int Int)) ($x2332246 Int) ($a2312244 Int) ($a52282241 (Array Int Int)) ($i2322245 Int) ($a42272240 (Array Int Int)) ($a32262239 (Array Int Int)) ($a72302243 (Array Int Int)))
    (=> (and (< $i2322245 100000)
             ($main_inv143 $a12242237 $a22252238 $a32262239 $a42272240 $a52282241 $a62292242 $a72302243 $a2312244 $i2322245 $x2332246))
        ($main_inv143 $a12242237 $a22252238 $a32262239 $a42272240 (store $a52282241 $i2322245 (select $a42272240 $i2322245)) $a62292242 $a72302243 $a2312244 (+ $i2322245 1) $x2332246))))

; loop entry $main_inv144
(assert
  (forall (($a22252248 (Array Int Int)) ($a32262249 (Array Int Int)) ($a2312254 Int) ($a62292252 (Array Int Int)) ($x2332256 Int) ($a72302253 (Array Int Int)) ($a42272250 (Array Int Int)) ($i2322255 Int) ($a52282251 (Array Int Int)) ($a12242247 (Array Int Int)))
    (=> (and ($main_sum143 $a12242247 $a22252248 $a32262249 $a42272250 $a52282251 $a62292252 $a72302253 $a2312254 $i2322255 $x2332256))
        ($main_inv144 $a12242247 $a22252248 $a32262249 $a42272250 $a52282251 $a62292252 $a72302253 $a2312254 0 $x2332256))))

; loop term $main_sum144
(assert
  (forall (($x2332266 Int) ($a32262259 (Array Int Int)) ($a42272260 (Array Int Int)) ($a62292262 (Array Int Int)) ($a22252258 (Array Int Int)) ($a2312264 Int) ($i2322265 Int) ($a72302263 (Array Int Int)) ($a52282261 (Array Int Int)) ($a12242257 (Array Int Int)))
    (=> (and (not (< $i2322265 100000))
             ($main_inv144 $a12242257 $a22252258 $a32262259 $a42272260 $a52282261 $a62292262 $a72302263 $a2312264 $i2322265 $x2332266))
        ($main_sum144 $a12242257 $a22252258 $a32262259 $a42272260 $a52282261 $a62292262 $a72302263 $a2312264 $i2322265 $x2332266))))

; forwards $main_inv144
(assert
  (forall (($x2332266 Int) ($a32262259 (Array Int Int)) ($a42272260 (Array Int Int)) ($a62292262 (Array Int Int)) ($a22252258 (Array Int Int)) ($a2312264 Int) ($i2322265 Int) ($a72302263 (Array Int Int)) ($a52282261 (Array Int Int)) ($a12242257 (Array Int Int)))
    (=> (and (< $i2322265 100000)
             ($main_inv144 $a12242257 $a22252258 $a32262259 $a42272260 $a52282261 $a62292262 $a72302263 $a2312264 $i2322265 $x2332266))
        ($main_inv144 $a12242257 $a22252258 $a32262259 $a42272260 $a52282261 $a62292262 (store $a72302263 $i2322265 (select $a52282261 $i2322265)) $a2312264 (+ $i2322265 1) $x2332266))))

; loop entry $main_inv145
(assert
  (forall (($a2312274 Int) ($a22252268 (Array Int Int)) ($a72302273 (Array Int Int)) ($x2332276 Int) ($a32262269 (Array Int Int)) ($a52282271 (Array Int Int)) ($a62292272 (Array Int Int)) ($i2322275 Int) ($a42272270 (Array Int Int)) ($a12242267 (Array Int Int)))
    (=> (and ($main_sum144 $a12242267 $a22252268 $a32262269 $a42272270 $a52282271 $a62292272 $a72302273 $a2312274 $i2322275 $x2332276))
        ($main_inv145 $a12242267 $a22252268 $a32262269 $a42272270 $a52282271 $a62292272 $a72302273 $a2312274 0 $x2332276))))

; loop term $main_sum145
(assert
  (forall (($a32262279 (Array Int Int)) ($a62292282 (Array Int Int)) ($a42272280 (Array Int Int)) ($a52282281 (Array Int Int)) ($i2322285 Int) ($x2332286 Int) ($a22252278 (Array Int Int)) ($a72302283 (Array Int Int)) ($a12242277 (Array Int Int)) ($a2312284 Int))
    (=> (and (not (< $i2322285 100000))
             ($main_inv145 $a12242277 $a22252278 $a32262279 $a42272280 $a52282281 $a62292282 $a72302283 $a2312284 $i2322285 $x2332286))
        ($main_sum145 $a12242277 $a22252278 $a32262279 $a42272280 $a52282281 $a62292282 $a72302283 $a2312284 $i2322285 $x2332286))))

; forwards $main_inv145
(assert
  (forall (($a32262279 (Array Int Int)) ($a62292282 (Array Int Int)) ($a42272280 (Array Int Int)) ($a52282281 (Array Int Int)) ($i2322285 Int) ($x2332286 Int) ($a22252278 (Array Int Int)) ($a72302283 (Array Int Int)) ($a12242277 (Array Int Int)) ($a2312284 Int))
    (=> (and (< $i2322285 100000)
             ($main_inv145 $a12242277 $a22252278 $a32262279 $a42272280 $a52282281 $a62292282 $a72302283 $a2312284 $i2322285 $x2332286))
        ($main_inv145 $a12242277 $a22252278 $a32262279 $a42272280 $a52282281 $a62292282 (store $a72302283 $i2322285 (select $a62292282 $i2322285)) $a2312284 (+ $i2322285 1) $x2332286))))

; loop entry $main_inv146
(assert
  (forall (($a72302293 (Array Int Int)) ($a52282291 (Array Int Int)) ($i2322295 Int) ($a2312294 Int) ($x2332296 Int) ($a42272290 (Array Int Int)) ($a62292292 (Array Int Int)) ($a32262289 (Array Int Int)) ($a22252288 (Array Int Int)) ($a12242287 (Array Int Int)))
    (=> (and ($main_sum145 $a12242287 $a22252288 $a32262289 $a42272290 $a52282291 $a62292292 $a72302293 $a2312294 $i2322295 $x2332296))
        ($main_inv146 $a12242287 $a22252288 $a32262289 $a42272290 $a52282291 $a62292292 $a72302293 $a2312294 $i2322295 0))))

; loop term $main_sum146
(assert
  (forall (($a32262299 (Array Int Int)) ($a62292302 (Array Int Int)) ($a12242297 (Array Int Int)) ($i2322305 Int) ($a42272300 (Array Int Int)) ($a52282301 (Array Int Int)) ($a22252298 (Array Int Int)) ($a2312304 Int) ($a72302303 (Array Int Int)) ($x2332306 Int))
    (=> (and (not (< $x2332306 100000))
             ($main_inv146 $a12242297 $a22252298 $a32262299 $a42272300 $a52282301 $a62292302 $a72302303 $a2312304 $i2322305 $x2332306))
        ($main_sum146 $a12242297 $a22252298 $a32262299 $a42272300 $a52282301 $a62292302 $a72302303 $a2312304 $i2322305 $x2332306))))

; __VERIFIER_assert precondition
(assert
  (forall (($a32262299 (Array Int Int)) ($a62292302 (Array Int Int)) ($a12242297 (Array Int Int)) ($i2322305 Int) ($a42272300 (Array Int Int)) ($a52282301 (Array Int Int)) ($a22252298 (Array Int Int)) ($a2312304 Int) ($a72302303 (Array Int Int)) ($x2332306 Int))
    (=> (and (< $x2332306 100000)
             ($main_inv146 $a12242297 $a22252298 $a32262299 $a42272300 $a52282301 $a62292302 $a72302303 $a2312304 $i2322305 $x2332306))
        ($__VERIFIER_assert_pre (ite (= (select $a12242297 $x2332306) (select $a72302303 $x2332306)) 1 0)))))

; forwards $main_inv146
(assert
  (forall (($a32262299 (Array Int Int)) ($a62292302 (Array Int Int)) ($a12242297 (Array Int Int)) ($i2322305 Int) ($a42272300 (Array Int Int)) ($a52282301 (Array Int Int)) ($a22252298 (Array Int Int)) ($a2312304 Int) ($a72302303 (Array Int Int)) ($x2332306 Int))
    (=> (and (__VERIFIER_assert (ite (= (select $a12242297 $x2332306) (select $a72302303 $x2332306)) 1 0))
             (< $x2332306 100000)
             ($main_inv146 $a12242297 $a22252298 $a32262299 $a42272300 $a52282301 $a62292302 $a72302303 $a2312304 $i2322305 $x2332306))
        ($main_inv146 $a12242297 $a22252298 $a32262299 $a42272300 $a52282301 $a62292302 $a72302303 $a2312304 $i2322305 (+ $x2332306 1)))))

(check-sat)
